NAME : local_3
TYPE : ATSP
DIMENSION : 6
EDGE_WEIGHT_TYPE : EXPLICIT
EDGE_WEIGHT_FORMAT : FULL_MATRIX
EDGE_WEIGHT_SECTION
0 198 411 10000000 997 639 
0 0 484 10000000 10000000 701 
0 484 0 1052 683 253 
0 10000000 1012 0 506 844 
0 10000000 683 506 0 514 
0 10000000 10000000 10000000 10000000 0 
EOF